Features/ForMiniZinc/benchmark_puzzles/benchmarks4x4/55/puzzle5.dzn
S = 4;
start = [|13,0,7,6,0,10,0,16,11,15,0,9,0,1,0,2|
0,12,8,0,0,6,15,0,0,0,0,3,0,0,0,14|
0,0,15,2,5,0,4,14,0,16,1,0,3,8,0,0|
3,0,0,0,12,0,1,0,0,0,4,0,11,0,0,0|
0,0,0,0,8,0,6,10,15,12,9,14,0,0,0,0|
0,0,6,12,4,0,5,1,0,0,0,13,0,0,0,9|
15,0,0,0,0,0,16,0,8,1,0,0,6,0,0,0|
16,0,2,0,0,15,0,9,0,0,0,11,8,12,1,0|
1,8,0,15,6,0,0,0,0,0,12,0,0,0,0,10|
0,0,0,0,11,0,0,15,0,8,2,0,0,0,0,0|
7,16,12,5,0,2,0,8,0,4,6,0,0,13,0,0|
0,0,9,4,13,16,12,0,14,0,0,7,1,6,3,8|
6,13,0,8,1,0,0,12,0,0,0,0,0,0,5,0|
0,0,0,7,0,8,14,0,0,0,11,0,10,4,6,0|
4,0,0,0,7,5,2,0,13,0,0,0,12,11,0,1|
0,0,0,14,0,0,10,13,1,3,7,0,0,9,8,0|];